CuCoFeS4_113                            
   1.00000000000000     
     6.5531434725762141    0.1872550974759703   -0.0245005588293952
    -2.9579334059705733   10.5851801587065921   -0.3428406627710050
    -0.0938913572610974   -0.7522354286227805   22.2624156160534810
   Cu   Co   Fe   S 
     4     7     1    16
Direct
  0.5375328260993159  0.0233603360593132  0.0344268509713057
  0.7481470878593617  0.5348571371666728  0.1693293950423091
  0.9008197974659152  0.8994783523873349  0.1625080398044343
  0.6577844516243742  0.3510409617450336  0.0134390588456862
  0.3422444209000375  0.7506872575718686  0.1418023554087815
  0.1228963370103289  0.1515441057406589  0.0529589221675817
  0.5100706471580883  0.9614951801020799  0.1965702266152085
  0.2043181496955133  0.4534721700128925  0.0954644995832211
  0.5576678168815434  0.6788252684733910  0.0378333775570406
  0.0557603396450971  0.6831827428289591  0.0386452721156522
  0.8837054690890828  0.2432602480290615  0.1514450734596516
  0.3903569773794794  0.2368855313805530  0.1649400131930542
  0.2494016053762716  0.5499769503672668  0.0074808896647581
  0.5854610803935687  0.1031342893523864  0.1341741873180275
  0.6923362693648861  0.3503504105284433  0.2070824115903352
  0.3657014033392916  0.8183697120114164  0.0454826346467665
  0.3902963923442306  0.1532399063818096  0.9858193063291506
  0.4952716472995579  0.5977008377871842  0.1231854605551047
  0.8729159245947532  0.9888115784791408  0.0119338865145792
  0.0505246884831708  0.6048465892205231  0.1254387077314829
  0.0747956806027042  0.1005264649412885  0.1493497790965709
  0.8585044764828397  0.8239053203025342  0.0621770369688789
  0.1853790638393545  0.3721181407965979  0.1890833194308377
  0.9382888756397163  0.3006677724633280  0.0594654373279185
  0.1982865679560597  0.8614777140998459  0.2055964086741205
  0.3868538070847365  0.3137784495920738  0.0770124018326403
  0.7585246274454117  0.5619077323973822  0.0005268688554084
  0.6225238718876269  0.8038189386214395  0.2120181639552634
 
  0.00000000E+00  0.00000000E+00  0.00000000E+00
  0.00000000E+00  0.00000000E+00  0.00000000E+00
  0.00000000E+00  0.00000000E+00  0.00000000E+00
  0.00000000E+00  0.00000000E+00  0.00000000E+00
  0.00000000E+00  0.00000000E+00  0.00000000E+00
  0.00000000E+00  0.00000000E+00  0.00000000E+00
  0.00000000E+00  0.00000000E+00  0.00000000E+00
  0.00000000E+00  0.00000000E+00  0.00000000E+00
  0.00000000E+00  0.00000000E+00  0.00000000E+00
  0.00000000E+00  0.00000000E+00  0.00000000E+00
  0.00000000E+00  0.00000000E+00  0.00000000E+00
  0.00000000E+00  0.00000000E+00  0.00000000E+00
  0.00000000E+00  0.00000000E+00  0.00000000E+00
  0.00000000E+00  0.00000000E+00  0.00000000E+00
  0.00000000E+00  0.00000000E+00  0.00000000E+00
  0.00000000E+00  0.00000000E+00  0.00000000E+00
  0.00000000E+00  0.00000000E+00  0.00000000E+00
  0.00000000E+00  0.00000000E+00  0.00000000E+00
  0.00000000E+00  0.00000000E+00  0.00000000E+00
  0.00000000E+00  0.00000000E+00  0.00000000E+00
  0.00000000E+00  0.00000000E+00  0.00000000E+00
  0.00000000E+00  0.00000000E+00  0.00000000E+00
  0.00000000E+00  0.00000000E+00  0.00000000E+00
  0.00000000E+00  0.00000000E+00  0.00000000E+00
  0.00000000E+00  0.00000000E+00  0.00000000E+00
  0.00000000E+00  0.00000000E+00  0.00000000E+00
  0.00000000E+00  0.00000000E+00  0.00000000E+00
  0.00000000E+00  0.00000000E+00  0.00000000E+00
