CuCo2S4_113                             
   1.00000000000000     
     6.7020001411000001    0.0000000000000000    0.0000000000000000
    -3.3509789095000002   11.1139068065999993    0.0000000000000000
     0.0000000000000000    0.0000000000000000   23.1124992370999998
   Cu   Co   S 
     4     8    16
Direct
  0.5081729885943904  0.0167352894958282  0.0393253389152652
  0.7596724114028325  0.5192173003961460  0.1669367081386097
  0.9474180068913185  0.8953158329180294  0.1484154476012470
  0.6954542661750988  0.3908009118127536  0.0329770388010953
  0.3719377802214803  0.7440231771284371  0.1392223488916645
  0.0823757681501751  0.1646763234629383  0.0549451611038905
  0.4970160770174305 -0.0059375184100684  0.1948416346669528
  0.2268327497992864  0.4535683167156422  0.1010232489344145
  0.5898383293836591  0.6767113939996742  0.0462848920171870
  0.0868109470280013  0.6767911484358663  0.0462588223361982
  0.3679399466871157  0.2325041014104600  0.1536821231928623
  0.8648522841453238  0.2325747443650096  0.1536591914047168
  0.2775849092652249  0.5553266460504667  0.0142318100415824
  0.5576941904445814  0.1151188214807484  0.1266893546901679
  0.6652603500239985  0.3302313301031043  0.1943254978098846
  0.4039101609229948  0.8076606323370005  0.0482462135835777
  0.2209764194826299  0.0517198086028082  0.0049036746102779
  0.5146339688401235  0.5929211667312480  0.1309986937292669
  0.8305603314129389  0.0516836669146909  0.0050051848464113
  0.0782581402751161  0.5929189203894232  0.1309463881074587
  0.0523132945481898  0.1044745263821296  0.1481017688103805
  0.9001034095593106  0.8002703943078616  0.0633932043067818
  0.1750030943677879  0.3497093064070376  0.1864401758731575
  0.9399173128066306  0.3175696480935412  0.0688192131584931
  0.2182519294573177  0.8546422155259311  0.1911853974487234
  0.3778199397267801  0.3175366954503815  0.0688720906822027
  0.7897115472387820  0.5794659468085301  0.0041707549713521
  0.6360497490737990  0.8544893515248594  0.1912886065819616
 
  0.00000000E+00  0.00000000E+00  0.00000000E+00
  0.00000000E+00  0.00000000E+00  0.00000000E+00
  0.00000000E+00  0.00000000E+00  0.00000000E+00
  0.00000000E+00  0.00000000E+00  0.00000000E+00
  0.00000000E+00  0.00000000E+00  0.00000000E+00
  0.00000000E+00  0.00000000E+00  0.00000000E+00
  0.00000000E+00  0.00000000E+00  0.00000000E+00
  0.00000000E+00  0.00000000E+00  0.00000000E+00
  0.00000000E+00  0.00000000E+00  0.00000000E+00
  0.00000000E+00  0.00000000E+00  0.00000000E+00
  0.00000000E+00  0.00000000E+00  0.00000000E+00
  0.00000000E+00  0.00000000E+00  0.00000000E+00
  0.00000000E+00  0.00000000E+00  0.00000000E+00
  0.00000000E+00  0.00000000E+00  0.00000000E+00
  0.00000000E+00  0.00000000E+00  0.00000000E+00
  0.00000000E+00  0.00000000E+00  0.00000000E+00
  0.00000000E+00  0.00000000E+00  0.00000000E+00
  0.00000000E+00  0.00000000E+00  0.00000000E+00
  0.00000000E+00  0.00000000E+00  0.00000000E+00
  0.00000000E+00  0.00000000E+00  0.00000000E+00
  0.00000000E+00  0.00000000E+00  0.00000000E+00
  0.00000000E+00  0.00000000E+00  0.00000000E+00
  0.00000000E+00  0.00000000E+00  0.00000000E+00
  0.00000000E+00  0.00000000E+00  0.00000000E+00
  0.00000000E+00  0.00000000E+00  0.00000000E+00
  0.00000000E+00  0.00000000E+00  0.00000000E+00
  0.00000000E+00  0.00000000E+00  0.00000000E+00
  0.00000000E+00  0.00000000E+00  0.00000000E+00
